benchmarks_CP/INST_36x36/20/inst36x36_20_83.dzn
S=6;
start=[|
33,	23,	-1,	-1,	-1,	-1,	31,	-1,	-1,	-1,	11,	-1,	-1,	-1,	6,	35,	-1,	5,	-1,	-1,	4,	32,	20,	-1,	13,	28,	-1,	-1,	-1,	-1,	-1,	-1,	1,	-1,	-1,	-1|
-1,	-1,	-1,	-1,	-1,	-1,	-1,	24,	7,	26,	-1,	-1,	-1,	-1,	-1,	-1,	-1,	-1,	28,	-1,	-1,	-1,	-1,	-1,	-1,	-1,	30,	-1,	-1,	-1,	-1,	-1,	-1,	-1,	-1,	-1|
-1,	-1,	9,	-1,	22,	-1,	-1,	29,	-1,	13,	32,	10,	-1,	-1,	25,	-1,	21,	-1,	-1,	-1,	33,	26,	2,	-1,	-1,	-1,	-1,	-1,	-1,	-1,	-1,	-1,	-1,	-1,	-1,	-1|
-1,	12,	15,	11,	30,	-1,	-1,	-1,	-1,	20,	-1,	-1,	-1,	-1,	-1,	36,	-1,	-1,	-1,	-1,	-1,	-1,	-1,	-1,	33,	-1,	-1,	-1,	-1,	-1,	-1,	-1,	-1,	-1,	-1,	-1|
-1,	-1,	-1,	-1,	-1,	13,	-1,	-1,	-1,	2,	-1,	-1,	-1,	-1,	-1,	-1,	-1,	-1,	-1,	-1,	-1,	-1,	-1,	-1,	20,	-1,	-1,	29,	-1,	-1,	-1,	-1,	-1,	-1,	19,	-1|
-1,	10,	-1,	-1,	-1,	-1,	36,	22,	-1,	-1,	28,	-1,	-1,	30,	27,	-1,	-1,	-1,	-1,	-1,	-1,	-1,	-1,	-1,	-1,	-1,	-1,	-1,	-1,	4,	-1,	-1,	5,	-1,	-1,	-1|
-1,	-1,	-1,	-1,	-1,	-1,	-1,	-1,	-1,	-1,	-1,	-1,	-1,	-1,	-1,	-1,	36,	13,	-1,	-1,	-1,	-1,	-1,	-1,	-1,	-1,	-1,	-1,	-1,	-1,	-1,	-1,	-1,	-1,	23,	-1|
-1,	-1,	-1,	10,	-1,	15,	-1,	-1,	-1,	-1,	18,	-1,	-1,	-1,	-1,	-1,	-1,	-1,	14,	-1,	-1,	-1,	28,	-1,	-1,	-1,	23,	30,	-1,	-1,	35,	-1,	-1,	-1,	-1,	-1|
-1,	-1,	-1,	13,	-1,	-1,	-1,	-1,	-1,	-1,	-1,	27,	-1,	-1,	-1,	-1,	29,	-1,	-1,	-1,	21,	-1,	-1,	-1,	11,	-1,	-1,	-1,	-1,	-1,	6,	-1,	-1,	-1,	-1,	-1|
11,	-1,	-1,	-1,	-1,	-1,	9,	-1,	-1,	30,	-1,	-1,	28,	-1,	32,	-1,	-1,	7,	-1,	-1,	-1,	-1,	-1,	-1,	-1,	-1,	-1,	16,	-1,	-1,	-1,	-1,	3,	-1,	36,	-1|
-1,	-1,	32,	-1,	31,	-1,	-1,	-1,	13,	-1,	-1,	35,	-1,	-1,	-1,	-1,	26,	-1,	-1,	20,	-1,	-1,	-1,	15,	-1,	-1,	-1,	5,	-1,	-1,	-1,	-1,	18,	1,	-1,	27|
-1,	-1,	34,	-1,	-1,	-1,	22,	-1,	-1,	-1,	-1,	-1,	-1,	11,	-1,	27,	-1,	-1,	-1,	23,	-1,	-1,	-1,	-1,	14,	-1,	-1,	-1,	18,	-1,	19,	-1,	-1,	-1,	-1,	-1|
-1,	-1,	-1,	-1,	1,	-1,	-1,	-1,	-1,	-1,	-1,	21,	19,	-1,	26,	34,	7,	-1,	17,	-1,	-1,	-1,	-1,	6,	-1,	-1,	-1,	-1,	-1,	-1,	-1,	-1,	23,	-1,	-1,	-1|
-1,	6,	-1,	-1,	25,	33,	-1,	17,	-1,	-1,	-1,	-1,	21,	-1,	-1,	-1,	-1,	-1,	-1,	-1,	-1,	1,	13,	26,	24,	-1,	-1,	-1,	-1,	-1,	-1,	-1,	-1,	-1,	-1,	-1|
-1,	-1,	7,	-1,	26,	23,	29,	-1,	-1,	-1,	-1,	13,	-1,	-1,	-1,	-1,	-1,	-1,	-1,	-1,	30,	-1,	-1,	-1,	-1,	-1,	-1,	-1,	-1,	-1,	-1,	-1,	-1,	11,	-1,	-1|
-1,	-1,	-1,	-1,	-1,	-1,	-1,	-1,	-1,	-1,	-1,	-1,	-1,	-1,	-1,	-1,	-1,	-1,	-1,	-1,	-1,	-1,	34,	19,	-1,	-1,	-1,	-1,	-1,	-1,	-1,	-1,	13,	-1,	-1,	-1|
19,	2,	-1,	-1,	-1,	-1,	-1,	34,	-1,	-1,	-1,	-1,	-1,	-1,	-1,	-1,	-1,	-1,	-1,	-1,	-1,	11,	-1,	-1,	-1,	-1,	15,	-1,	-1,	-1,	-1,	-1,	-1,	-1,	-1,	-1|
-1,	-1,	-1,	34,	-1,	9,	-1,	4,	-1,	-1,	-1,	-1,	-1,	-1,	-1,	-1,	-1,	-1,	-1,	-1,	-1,	-1,	-1,	-1,	-1,	11,	36,	-1,	-1,	-1,	-1,	-1,	-1,	-1,	-1,	-1|
13,	-1,	-1,	33,	-1,	-1,	35,	-1,	-1,	-1,	4,	3,	-1,	-1,	-1,	24,	-1,	-1,	-1,	-1,	-1,	-1,	-1,	-1,	-1,	14,	-1,	18,	-1,	26,	-1,	-1,	36,	-1,	-1,	-1|
-1,	-1,	-1,	-1,	-1,	-1,	34,	-1,	6,	-1,	-1,	5,	35,	-1,	-1,	-1,	-1,	-1,	-1,	-1,	13,	-1,	-1,	-1,	-1,	-1,	-1,	-1,	-1,	-1,	-1,	-1,	-1,	-1,	-1,	-1|
-1,	-1,	-1,	-1,	-1,	-1,	8,	26,	-1,	23,	-1,	-1,	-1,	28,	22,	-1,	2,	-1,	-1,	-1,	-1,	-1,	36,	-1,	-1,	-1,	-1,	-1,	-1,	-1,	-1,	-1,	-1,	-1,	-1,	30|
22,	-1,	20,	-1,	-1,	-1,	-1,	-1,	31,	-1,	15,	-1,	-1,	-1,	-1,	-1,	17,	-1,	-1,	-1,	35,	-1,	-1,	-1,	-1,	-1,	-1,	-1,	-1,	-1,	-1,	-1,	-1,	18,	-1,	-1|
-1,	5,	-1,	-1,	14,	6,	-1,	-1,	-1,	-1,	-1,	-1,	-1,	-1,	-1,	-1,	-1,	4,	16,	-1,	-1,	-1,	-1,	10,	-1,	-1,	-1,	-1,	-1,	-1,	-1,	-1,	-1,	32,	-1,	-1|
-1,	-1,	-1,	-1,	-1,	-1,	-1,	-1,	-1,	-1,	-1,	-1,	-1,	-1,	-1,	11,	-1,	15,	31,	-1,	-1,	-1,	6,	-1,	2,	-1,	-1,	-1,	-1,	-1,	-1,	-1,	-1,	-1,	-1,	-1|
4,	-1,	-1,	-1,	-1,	-1,	-1,	-1,	32,	-1,	-1,	-1,	-1,	-1,	17,	30,	-1,	12,	-1,	34,	-1,	-1,	-1,	-1,	-1,	-1,	6,	-1,	14,	-1,	-1,	-1,	-1,	-1,	2,	-1|
-1,	-1,	19,	-1,	15,	-1,	-1,	2,	-1,	-1,	-1,	-1,	-1,	-1,	-1,	-1,	-1,	-1,	-1,	-1,	-1,	-1,	-1,	28,	-1,	36,	-1,	-1,	-1,	-1,	26,	-1,	-1,	-1,	-1,	-1|
-1,	-1,	-1,	-1,	-1,	36,	-1,	-1,	-1,	-1,	-1,	-1,	-1,	-1,	-1,	-1,	-1,	-1,	26,	31,	-1,	-1,	-1,	-1,	-1,	-1,	-1,	-1,	5,	-1,	3,	-1,	-1,	7,	-1,	-1|
32,	-1,	-1,	-1,	-1,	-1,	-1,	8,	-1,	-1,	9,	-1,	20,	4,	-1,	-1,	-1,	-1,	-1,	-1,	-1,	-1,	-1,	-1,	-1,	-1,	-1,	-1,	-1,	-1,	-1,	-1,	-1,	35,	-1,	-1|
-1,	-1,	-1,	-1,	-1,	-1,	-1,	-1,	10,	-1,	-1,	-1,	36,	-1,	-1,	19,	-1,	-1,	-1,	-1,	-1,	22,	-1,	2,	-1,	-1,	-1,	-1,	17,	29,	-1,	-1,	-1,	34,	-1,	-1|
-1,	-1,	-1,	14,	-1,	-1,	-1,	-1,	34,	33,	-1,	-1,	-1,	-1,	-1,	9,	-1,	-1,	-1,	16,	-1,	-1,	-1,	-1,	35,	-1,	11,	26,	-1,	-1,	-1,	-1,	-1,	-1,	24,	-1|
-1,	36,	-1,	-1,	-1,	-1,	-1,	21,	-1,	19,	-1,	-1,	-1,	13,	-1,	-1,	-1,	11,	27,	-1,	-1,	6,	-1,	-1,	-1,	10,	-1,	7,	-1,	-1,	-1,	-1,	-1,	-1,	-1,	-1|
35,	-1,	3,	19,	-1,	-1,	-1,	-1,	-1,	-1,	-1,	1,	-1,	33,	-1,	26,	-1,	-1,	-1,	-1,	-1,	-1,	-1,	-1,	-1,	-1,	-1,	-1,	-1,	-1,	-1,	10,	-1,	-1,	-1,	-1|
-1,	-1,	-1,	-1,	-1,	30,	-1,	-1,	-1,	-1,	-1,	-1,	-1,	-1,	-1,	-1,	35,	-1,	-1,	-1,	-1,	-1,	10,	-1,	-1,	-1,	-1,	-1,	-1,	-1,	-1,	-1,	15,	-1,	21,	31|
-1,	-1,	-1,	-1,	-1,	31,	23,	-1,	-1,	-1,	-1,	-1,	-1,	-1,	-1,	-1,	-1,	-1,	3,	-1,	-1,	-1,	-1,	-1,	16,	-1,	-1,	-1,	-1,	-1,	-1,	-1,	19,	-1,	9,	-1|
-1,	34,	-1,	7,	-1,	-1,	-1,	-1,	-1,	-1,	-1,	-1,	-1,	-1,	-1,	-1,	-1,	-1,	-1,	-1,	-1,	-1,	-1,	-1,	-1,	15,	-1,	-1,	-1,	-1,	-1,	-1,	27,	-1,	5,	23|
8,	-1,	-1,	-1,	-1,	-1,	-1,	-1,	-1,	29,	-1,	-1,	-1,	-1,	-1,	-1,	-1,	-1,	-1,	25,	-1,	-1,	9,	-1,	-1,	-1,	-1,	11,	-1,	-1,	14,	26,	-1,	-1,	-1,	-1|];
